NAME: rand_1/map7_180
TYPE: TSP
COMMENT: autogenerated using a wonderful map creator
DIMENSION: 210
EDGE_WEIGHT_TYPE: EUC_2D
NODE_COORD_SECTION
1 93.0 5.0
2 122.0 72.0
3 82.0 3.0
4 81.0 18.0
5 3.0 39.0
6 71.0 11.0
7 31.0 127.0
8 70.0 6.0
9 74.0 14.0
10 125.0 79.0
11 1.0 39.0
12 83.0 7.0
13 46.0 127.0
14 88.0 4.0
15 7.0 34.0
16 46.0 122.0
17 92.0 9.0
18 124.0 70.0
19 126.0 73.0
20 88.0 9.0
21 69.0 5.0
22 127.0 71.0
23 44.0 122.0
24 51.0 124.0
25 98.0 3.0
26 92.0 3.0
27 70.0 5.0
28 89.0 6.0
29 120.0 73.0
30 88.0 7.0
31 89.0 3.0
32 75.0 10.0
33 11.0 35.0
34 3.0 41.0
35 6.0 35.0
36 83.0 17.0
37 5.0 37.0
38 76.0 5.0
39 72.0 1.0
40 29.0 122.0
41 94.0 9.0
42 79.0 18.0
43 95.0 8.0
44 32.0 123.0
45 95.0 10.0
46 4.0 32.0
47 35.0 126.0
48 87.0 16.0
49 125.0 74.0
50 3.0 36.0
51 126.0 83.0
52 32.0 122.0
53 48.0 124.0
54 80.0 16.0
55 30.0 125.0
56 46.0 123.0
57 68.0 15.0
58 125.0 67.0
59 49.0 125.0
60 79.0 9.0
61 23.0 4.0
62 33.0 91.0
63 15.0 85.0
64 26.0 30.0
65 124.0 10.0
66 52.0 58.0
67 117.0 26.0
68 107.0 122.0
69 76.0 52.0
70 10.0 6.0
71 19.0 73.0
72 102.0 34.0
73 86.0 102.0
74 76.0 79.0
75 13.0 8.0
76 57.0 20.0
77 89.0 61.0
78 113.0 28.0
79 72.0 75.0
80 116.0 45.0
81 6.0 84.0
82 91.0 55.0
83 72.0 84.0
84 61.0 118.0
85 42.0 50.0
86 79.0 90.0
87 46.0 41.0
88 66.0 62.0
89 103.0 111.0
90 14.0 88.0
91 2.0 68.0
92 97.0 104.0
93 124.0 33.0
94 81.0 126.0
95 25.0 18.0
96 26.0 80.0
97 4.0 114.0
98 60.0 112.0
99 67.0 63.0
100 19.0 41.0
101 71.0 24.0
102 111.0 5.0
103 81.0 98.0
104 27.0 72.0
105 43.0 62.0
106 41.0 10.0
107 95.0 45.0
108 86.0 97.0
109 14.0 26.0
110 33.0 6.0
111 124.0 99.0
112 27.0 93.0
113 67.0 120.0
114 90.0 85.0
115 98.0 98.0
116 54.0 10.0
117 112.0 45.0
118 68.0 54.0
119 95.0 102.0
120 92.0 85.0
121 86.0 44.0
122 72.0 109.0
123 4.0 91.0
124 123.0 17.0
125 47.0 98.0
126 10.0 24.0
127 117.0 62.0
128 91.0 107.0
129 119.0 4.0
130 59.0 118.0
131 24.0 96.0
132 37.0 5.0
133 74.0 118.0
134 92.0 69.0
135 121.0 50.0
136 86.0 37.0
137 23.0 97.0
138 16.0 122.0
139 52.0 87.0
140 110.0 104.0
141 10.0 81.0
142 36.0 45.0
143 127.0 99.0
144 28.0 41.0
145 91.0 109.0
146 27.0 51.0
147 53.0 70.0
148 111.0 2.0
149 29.0 15.0
150 19.0 47.0
151 62.0 91.0
152 15.0 34.0
153 31.0 94.0
154 14.0 23.0
155 112.0 58.0
156 96.0 80.0
157 16.0 124.0
158 78.0 108.0
159 78.0 53.0
160 118.0 89.0
161 105.0 46.0
162 54.0 7.0
163 85.0 40.0
164 14.0 53.0
165 29.0 17.0
166 109.0 71.0
167 123.0 97.0
168 85.0 67.0
169 69.0 25.0
170 10.0 3.0
171 113.0 59.0
172 124.0 34.0
173 9.0 23.0
174 17.0 36.0
175 61.0 103.0
176 90.0 84.0
177 56.0 116.0
178 5.0 107.0
179 19.0 106.0
180 100.0 6.0
181 74.0 42.0
182 49.0 31.0
183 59.0 72.0
184 29.0 101.0
185 55.0 83.0
186 24.0 114.0
187 81.0 47.0
188 15.0 111.0
189 97.0 98.0
190 73.0 43.0
191 102.0 24.0
192 22.0 52.0
193 56.0 54.0
194 83.0 47.0
195 95.0 85.0
196 101.0 43.0
197 58.0 75.0
198 18.0 91.0
199 98.0 120.0
200 109.0 105.0
201 103.0 64.0
202 63.0 7.0
203 120.0 123.0
204 51.0 108.0
205 75.0 109.0
206 4.0 3.0
207 24.0 100.0
208 84.0 105.0
209 34.0 86.0
210 53.0 99.0
211 39.0 45.0
212 42.0 14.0
213 20.0 41.0
214 37.0 45.0
215 13.0 38.0
216 96.0 109.0
217 21.0 30.0
218 72.0 96.0
219 28.0 17.0
220 90.0 120.0
221 36.0 39.0
222 85.0 96.0
223 69.0 109.0
224 74.0 105.0
225 104.0 21.0
226 41.0 47.0
227 58.0 63.0
228 114.0 95.0
229 65.0 50.0
230 53.0 94.0
231 19.0 126.0
232 48.0 107.0
233 56.0 99.0
234 19.0 80.0
235 37.0 31.0
236 37.0 95.0
237 85.0 25.0
238 112.0 9.0
239 63.0 4.0
240 26.0 76.0
START_DEPOT_SECTION
1
2
3
4
5
6
7
8
9
10
11
12
13
14
15
16
17
18
19
20
21
22
23
24
25
26
27
28
29
30
-1
END_DEPOT_SECTION
31
32
33
34
35
36
37
38
39
40
41
42
43
44
45
46
47
48
49
50
51
52
53
54
55
56
57
58
59
60
-1
EOF
